NAME : ClusterId_1013 
COMMENT : (Gillet and Johnson) 
TYPE : CVRP 
DIMENSION : 4 
EDGE_WEIGHT_TYPE : EUC_2D 
CAPACITY : 500 
NODE_COORD_SECTION 
1013 1988 8842 
666 1856 8794 
781 1701 8677 
510 2108 8679 
DEMAND_SECTION 
1013 1357
666 47
781 49
510 56
DEPOT_SECTION 
1013
 -1
EOF